c turning on binary mode checking
c parsing input formula with 259840 variables and 1039919 clauses
c finished parsing, read 36179706 bytes from proof file
c detected empty clause; start verification via backward checking
c 63387 of 1039919 clauses in core                            
c 103860 of 767843 lemmas in core using 1499504 resolution steps
c 0 RAT lemmas in core; 15414 redundant literals in core lemmas
s VERIFIED
c verification time: 7.142 seconds
